c "199041.clq"
p edge 200 784
e 1 5
e 1 6
e 1 8
e 1 24
e 1 25
e 1 26
e 1 49
e 1 53
e 1 81
e 1 85
e 1 91
e 1 94
e 1 126
e 1 136
e 1 146
e 1 152
e 2 5
e 2 6
e 2 7
e 2 8
e 2 11
e 2 14
e 2 16
e 2 54
e 2 90
e 2 92
e 2 105
e 2 180
e 2 189
e 2 190
e 2 196
e 3 5
e 3 7
e 3 8
e 3 16
e 3 25
e 3 29
e 3 34
e 3 66
e 3 82
e 3 108
e 3 154
e 3 162
e 3 171
e 4 5
e 4 6
e 4 9
e 4 11
e 4 17
e 4 19
e 4 27
e 4 31
e 4 35
e 4 65
e 4 155
e 5 6
e 5 7
e 5 9
e 5 10
e 5 11
e 5 12
e 5 13
e 5 14
e 5 17
e 5 20
e 5 27
e 5 28
e 5 29
e 5 30
e 5 33
e 5 37
e 5 39
e 5 42
e 5 43
e 5 48
e 5 59
e 5 64
e 5 66
e 5 69
e 5 78
e 5 84
e 5 89
e 5 93
e 5 94
e 5 101
e 5 103
e 5 108
e 5 113
e 5 115
e 5 116
e 5 123
e 5 138
e 5 139
e 5 144
e 5 146
e 5 161
e 5 167
e 5 168
e 5 174
e 5 180
e 6 7
e 6 8
e 6 9
e 6 10
e 6 12
e 6 15
e 6 22
e 6 23
e 6 26
e 6 35
e 6 46
e 6 47
e 6 64
e 6 68
e 6 97
e 6 121
e 6 124
e 6 127
e 6 150
e 6 152
e 6 166
e 6 178
e 7 10
e 7 12
e 7 13
e 7 16
e 7 18
e 7 23
e 7 39
e 7 43
e 7 55
e 7 63
e 7 90
e 7 114
e 7 123
e 7 165
e 7 170
e 8 9
e 8 13
e 8 16
e 8 23
e 8 24
e 8 26
e 8 33
e 8 37
e 8 38
e 8 39
e 8 42
e 8 43
e 8 47
e 8 48
e 8 56
e 8 65
e 8 71
e 8 76
e 8 79
e 8 88
e 8 92
e 8 101
e 8 105
e 8 118
e 8 124
e 8 128
e 8 138
e 8 144
e 8 169
e 8 181
e 8 196
e 9 10
e 9 11
e 9 12
e 9 13
e 9 14
e 9 15
e 9 21
e 9 24
e 9 29
e 9 32
e 9 36
e 9 39
e 9 53
e 9 61
e 9 78
e 9 79
e 9 80
e 9 82
e 9 88
e 9 93
e 9 102
e 9 107
e 9 156
e 9 158
e 10 14
e 10 15
e 10 20
e 10 22
e 10 25
e 10 35
e 10 36
e 10 41
e 10 50
e 10 55
e 10 66
e 10 77
e 10 90
e 10 118
e 10 139
e 10 149
e 10 160
e 10 192
e 11 21
e 11 22
e 11 31
e 11 48
e 11 49
e 11 50
e 11 57
e 11 73
e 11 86
e 11 88
e 11 102
e 11 107
e 11 116
e 11 131
e 11 134
e 11 149
e 11 161
e 11 178
e 11 185
e 11 192
e 11 200
e 12 15
e 12 17
e 12 18
e 12 19
e 12 21
e 12 27
e 12 32
e 12 38
e 12 52
e 12 53
e 12 58
e 12 133
e 12 145
e 12 177
e 13 21
e 13 36
e 13 43
e 13 45
e 13 65
e 13 71
e 13 108
e 13 109
e 13 112
e 13 114
e 13 125
e 13 144
e 13 169
e 13 170
e 13 183
e 13 188
e 14 18
e 14 19
e 14 42
e 14 81
e 14 83
e 14 84
e 14 91
e 14 97
e 14 118
e 14 124
e 14 135
e 14 158
e 14 173
e 14 179
e 15 17
e 15 20
e 15 55
e 15 84
e 15 104
e 15 154
e 15 177
e 16 31
e 16 32
e 16 56
e 16 61
e 16 62
e 16 97
e 16 99
e 16 104
e 16 130
e 16 137
e 16 142
e 16 148
e 16 156
e 16 158
e 17 18
e 17 19
e 17 24
e 17 27
e 17 28
e 17 29
e 17 32
e 17 34
e 17 40
e 17 46
e 17 49
e 17 52
e 17 59
e 17 60
e 17 61
e 17 69
e 17 70
e 17 94
e 17 96
e 17 98
e 17 100
e 17 103
e 17 112
e 17 116
e 17 122
e 17 124
e 17 140
e 17 141
e 17 168
e 17 186
e 18 40
e 18 50
e 18 67
e 18 88
e 18 113
e 18 128
e 18 137
e 18 191
e 19 20
e 19 22
e 19 31
e 19 34
e 19 45
e 19 87
e 19 95
e 19 100
e 19 101
e 19 106
e 19 197
e 20 25
e 20 40
e 20 76
e 20 113
e 20 133
e 20 166
e 20 167
e 21 23
e 21 30
e 21 36
e 21 45
e 21 61
e 21 72
e 21 76
e 21 111
e 21 140
e 21 141
e 21 148
e 21 152
e 22 33
e 22 41
e 22 44
e 22 47
e 22 50
e 22 54
e 22 58
e 22 66
e 22 80
e 22 81
e 22 84
e 22 121
e 22 129
e 22 186
e 23 28
e 23 30
e 23 41
e 23 49
e 23 52
e 23 55
e 23 57
e 23 64
e 23 65
e 23 68
e 23 70
e 23 78
e 23 79
e 23 91
e 23 100
e 23 113
e 23 131
e 23 136
e 23 179
e 23 197
e 23 200
e 24 37
e 24 38
e 24 51
e 24 67
e 24 136
e 24 175
e 24 184
e 25 26
e 25 67
e 25 117
e 25 151
e 25 153
e 25 188
e 26 28
e 26 30
e 26 33
e 26 35
e 26 40
e 26 58
e 26 62
e 26 73
e 26 98
e 26 144
e 26 154
e 26 155
e 26 176
e 27 42
e 27 51
e 27 53
e 27 62
e 27 70
e 27 74
e 27 114
e 27 117
e 28 48
e 28 110
e 28 164
e 28 183
e 29 57
e 29 63
e 29 71
e 29 74
e 30 57
e 30 68
e 30 91
e 30 99
e 30 135
e 31 34
e 31 41
e 31 60
e 31 72
e 31 77
e 31 112
e 31 122
e 31 129
e 31 147
e 31 164
e 31 182
e 31 193
e 32 47
e 32 60
e 32 77
e 32 110
e 32 137
e 32 147
e 33 37
e 33 44
e 33 52
e 33 59
e 33 63
e 33 70
e 33 83
e 33 87
e 33 104
e 33 163
e 33 179
e 33 193
e 34 46
e 34 64
e 34 73
e 34 83
e 34 94
e 34 103
e 34 115
e 34 142
e 34 151
e 35 44
e 35 46
e 35 85
e 36 132
e 36 151
e 36 184
e 36 185
e 36 198
e 37 38
e 37 45
e 37 56
e 37 68
e 37 81
e 37 89
e 37 106
e 37 107
e 37 123
e 37 157
e 37 174
e 37 194
e 38 93
e 38 186
e 38 199
e 39 108
e 39 130
e 40 44
e 40 69
e 40 72
e 40 148
e 40 153
e 41 54
e 41 131
e 41 146
e 41 161
e 41 162
e 41 176
e 42 51
e 42 56
e 42 58
e 42 63
e 42 106
e 43 193
e 44 67
e 44 125
e 45 99
e 45 159
e 46 73
e 46 109
e 46 111
e 46 125
e 46 127
e 46 160
e 46 186
e 47 59
e 47 74
e 47 86
e 47 97
e 47 117
e 47 125
e 47 127
e 47 128
e 47 158
e 47 162
e 47 164
e 47 190
e 48 51
e 48 71
e 48 156
e 48 160
e 48 177
e 48 192
e 48 196
e 50 75
e 51 100
e 51 120
e 51 168
e 52 54
e 52 60
e 52 86
e 52 98
e 52 99
e 52 132
e 52 143
e 52 175
e 52 188
e 53 95
e 53 192
e 54 80
e 54 90
e 55 79
e 55 172
e 55 176
e 56 172
e 56 199
e 57 132
e 58 82
e 58 171
e 58 198
e 59 96
e 59 109
e 59 119
e 59 165
e 59 173
e 59 183
e 59 187
e 60 77
e 60 105
e 60 139
e 61 62
e 61 74
e 61 92
e 61 127
e 61 167
e 61 180
e 62 69
e 62 147
e 63 75
e 63 87
e 63 92
e 63 96
e 63 102
e 63 163
e 63 175
e 63 194
e 65 78
e 66 75
e 66 85
e 66 112
e 66 145
e 66 152
e 66 171
e 66 185
e 67 72
e 67 93
e 67 110
e 67 130
e 67 133
e 67 150
e 67 151
e 67 169
e 67 190
e 68 85
e 68 119
e 68 159
e 68 165
e 69 89
e 70 157
e 71 76
e 71 95
e 71 119
e 71 126
e 71 133
e 71 149
e 71 156
e 72 95
e 72 190
e 73 83
e 73 98
e 73 101
e 73 105
e 74 75
e 74 129
e 75 110
e 75 136
e 75 175
e 75 181
e 75 184
e 76 89
e 77 80
e 77 86
e 78 195
e 79 160
e 80 87
e 81 82
e 81 134
e 81 143
e 81 154
e 81 172
e 82 129
e 82 135
e 82 139
e 82 183
e 82 198
e 83 147
e 84 120
e 84 141
e 84 150
e 86 102
e 86 120
e 89 134
e 89 140
e 89 170
e 90 103
e 90 130
e 90 135
e 90 149
e 90 176
e 91 142
e 91 187
e 91 194
e 91 198
e 93 96
e 93 109
e 93 115
e 93 126
e 93 171
e 93 178
e 95 142
e 95 165
e 96 138
e 96 159
e 97 179
e 97 194
e 98 104
e 98 106
e 98 114
e 98 122
e 98 123
e 98 132
e 98 138
e 98 145
e 99 118
e 99 146
e 99 157
e 99 177
e 100 111
e 100 200
e 101 107
e 101 143
e 102 120
e 102 128
e 102 166
e 102 199
e 104 111
e 104 116
e 104 161
e 104 168
e 105 121
e 106 122
e 107 167
e 108 131
e 109 115
e 109 117
e 109 157
e 110 153
e 111 121
e 111 126
e 111 134
e 112 119
e 112 187
e 113 145
e 114 195
e 116 143
e 118 197
e 119 141
e 121 191
e 122 140
e 122 180
e 123 137
e 123 164
e 124 174
e 125 150
e 128 155
e 128 173
e 129 163
e 129 178
e 129 182
e 130 163
e 130 169
e 131 148
e 131 184
e 133 153
e 133 162
e 134 159
e 135 191
e 136 172
e 139 191
e 140 155
e 144 188
e 145 193
e 152 174
e 154 173
e 154 182
e 155 185
e 155 196
e 157 195
e 157 199
e 160 166
e 160 170
e 160 181
e 163 181
e 163 200
e 167 187
e 169 197
e 170 189
e 173 189
e 175 182
e 179 189
e 185 195
